<instance format="XCSP3" type="COP">
  <variables>
    <array id="s" note="Start time of operation j for job i" size="[7][7]"> 0..578 </array>
    <array id="e" note="End time of last operation of job i" size="[7]"> 0..578 </array>
    <array id="d" note="Duration of operation j for job i" size="[7][7]">
      <domain for="d[0][]"> 5 29 76 78 82 93 95 </domain>
      <domain for="d[1][]"> 44 50 52 62 68 80 84 </domain>
      <domain for="d[2][]"> 17 50 58 67 71 86 97 </domain>
      <domain for="d[3][]"> 22 46 57 62 72 94 98 </domain>
      <domain for="d[4][]"> 15 27 40 79 80 87 94 </domain>
      <domain for="d[5][]"> 26 44..47 69 74 </domain>
      <domain for="d[6][]"> 19 25 49 53 69 83 92 </domain>
    </array>
    <array id="w" note="Which machine for operation j of job i" size="[7][7]"> 0..6 </array>
    <array id="sd" note="Start (dual) time of job i, machine k" size="[7][7]"> 0..578 </array>
  </variables>
  <constraints>
    <group>
      <intension> eq(%0,add(%1,%2)) </intension>
      <args> e[0] s[0][6] d[0][6] </args>
      <args> e[1] s[1][6] d[1][6] </args>
      <args> e[2] s[2][6] d[2][6] </args>
      <args> e[3] s[3][6] d[3][6] </args>
      <args> e[4] s[4][6] d[4][6] </args>
      <args> e[5] s[5][6] d[5][6] </args>
      <args> e[6] s[6][6] d[6][6] </args>
    </group>
    <group>
      <allDifferent> %... </allDifferent>
      <args> w[0][] </args>
      <args> w[1][] </args>
      <args> w[2][] </args>
      <args> w[3][] </args>
      <args> w[4][] </args>
      <args> w[5][] </args>
      <args> w[6][] </args>
    </group>
    <block>
      <group>
        <extension>
          <list> %0 %1 </list>
          <supports> (0,76)(1,95)(2,93)(3,29)(4,82)(5,78)(6,5) </supports>
        </extension>
        <args> w[0][0] d[0][0] </args>
        <args> w[0][1] d[0][1] </args>
        <args> w[0][2] d[0][2] </args>
        <args> w[0][3] d[0][3] </args>
        <args> w[0][4] d[0][4] </args>
        <args> w[0][5] d[0][5] </args>
        <args> w[0][6] d[0][6] </args>
      </group>
      <group>
        <extension>
          <list> %0 %1 </list>
          <supports> (0,84)(1,50)(2,80)(3,68)(4,44)(5,52)(6,62) </supports>
        </extension>
        <args> w[1][0] d[1][0] </args>
        <args> w[1][1] d[1][1] </args>
        <args> w[1][2] d[1][2] </args>
        <args> w[1][3] d[1][3] </args>
        <args> w[1][4] d[1][4] </args>
        <args> w[1][5] d[1][5] </args>
        <args> w[1][6] d[1][6] </args>
      </group>
      <group>
        <extension>
          <list> %0 %1 </list>
          <supports> (0,71)(1,97)(2,17)(3,86)(4,50)(5,58)(6,67) </supports>
        </extension>
        <args> w[2][0] d[2][0] </args>
        <args> w[2][1] d[2][1] </args>
        <args> w[2][2] d[2][2] </args>
        <args> w[2][3] d[2][3] </args>
        <args> w[2][4] d[2][4] </args>
        <args> w[2][5] d[2][5] </args>
        <args> w[2][6] d[2][6] </args>
      </group>
      <group>
        <extension>
          <list> %0 %1 </list>
          <supports> (0,46)(1,62)(2,72)(3,22)(4,94)(5,98)(6,57) </supports>
        </extension>
        <args> w[3][0] d[3][0] </args>
        <args> w[3][1] d[3][1] </args>
        <args> w[3][2] d[3][2] </args>
        <args> w[3][3] d[3][3] </args>
        <args> w[3][4] d[3][4] </args>
        <args> w[3][5] d[3][5] </args>
        <args> w[3][6] d[3][6] </args>
      </group>
      <group>
        <extension>
          <list> %0 %1 </list>
          <supports> (0,40)(1,94)(2,79)(3,80)(4,15)(5,27)(6,87) </supports>
        </extension>
        <args> w[4][0] d[4][0] </args>
        <args> w[4][1] d[4][1] </args>
        <args> w[4][2] d[4][2] </args>
        <args> w[4][3] d[4][3] </args>
        <args> w[4][4] d[4][4] </args>
        <args> w[4][5] d[4][5] </args>
        <args> w[4][6] d[4][6] </args>
      </group>
      <group>
        <extension>
          <list> %0 %1 </list>
          <supports> (0,46)(1,45)(2,47)(3,26)(4,44)(5,69)(6,74) </supports>
        </extension>
        <args> w[5][0] d[5][0] </args>
        <args> w[5][1] d[5][1] </args>
        <args> w[5][2] d[5][2] </args>
        <args> w[5][3] d[5][3] </args>
        <args> w[5][4] d[5][4] </args>
        <args> w[5][5] d[5][5] </args>
        <args> w[5][6] d[5][6] </args>
      </group>
      <group>
        <extension>
          <list> %0 %1 </list>
          <supports> (0,19)(1,25)(2,69)(3,49)(4,83)(5,53)(6,92) </supports>
        </extension>
        <args> w[6][0] d[6][0] </args>
        <args> w[6][1] d[6][1] </args>
        <args> w[6][2] d[6][2] </args>
        <args> w[6][3] d[6][3] </args>
        <args> w[6][4] d[6][4] </args>
        <args> w[6][5] d[6][5] </args>
        <args> w[6][6] d[6][6] </args>
      </group>
    </block>
    <group>
      <intension> le(add(%0,%1),%2) </intension>
      <args> s[0][0] d[0][0] s[0][1] </args>
      <args> s[0][1] d[0][1] s[0][2] </args>
      <args> s[0][2] d[0][2] s[0][3] </args>
      <args> s[0][3] d[0][3] s[0][4] </args>
      <args> s[0][4] d[0][4] s[0][5] </args>
      <args> s[0][5] d[0][5] s[0][6] </args>
      <args> s[1][0] d[1][0] s[1][1] </args>
      <args> s[1][1] d[1][1] s[1][2] </args>
      <args> s[1][2] d[1][2] s[1][3] </args>
      <args> s[1][3] d[1][3] s[1][4] </args>
      <args> s[1][4] d[1][4] s[1][5] </args>
      <args> s[1][5] d[1][5] s[1][6] </args>
      <args> s[2][0] d[2][0] s[2][1] </args>
      <args> s[2][1] d[2][1] s[2][2] </args>
      <args> s[2][2] d[2][2] s[2][3] </args>
      <args> s[2][3] d[2][3] s[2][4] </args>
      <args> s[2][4] d[2][4] s[2][5] </args>
      <args> s[2][5] d[2][5] s[2][6] </args>
      <args> s[3][0] d[3][0] s[3][1] </args>
      <args> s[3][1] d[3][1] s[3][2] </args>
      <args> s[3][2] d[3][2] s[3][3] </args>
      <args> s[3][3] d[3][3] s[3][4] </args>
      <args> s[3][4] d[3][4] s[3][5] </args>
      <args> s[3][5] d[3][5] s[3][6] </args>
      <args> s[4][0] d[4][0] s[4][1] </args>
      <args> s[4][1] d[4][1] s[4][2] </args>
      <args> s[4][2] d[4][2] s[4][3] </args>
      <args> s[4][3] d[4][3] s[4][4] </args>
      <args> s[4][4] d[4][4] s[4][5] </args>
      <args> s[4][5] d[4][5] s[4][6] </args>
      <args> s[5][0] d[5][0] s[5][1] </args>
      <args> s[5][1] d[5][1] s[5][2] </args>
      <args> s[5][2] d[5][2] s[5][3] </args>
      <args> s[5][3] d[5][3] s[5][4] </args>
      <args> s[5][4] d[5][4] s[5][5] </args>
      <args> s[5][5] d[5][5] s[5][6] </args>
      <args> s[6][0] d[6][0] s[6][1] </args>
      <args> s[6][1] d[6][1] s[6][2] </args>
      <args> s[6][2] d[6][2] s[6][3] </args>
      <args> s[6][3] d[6][3] s[6][4] </args>
      <args> s[6][4] d[6][4] s[6][5] </args>
      <args> s[6][5] d[6][5] s[6][6] </args>
    </group>
    <block class="channeling">
      <group>
        <element>
          <list> sd[0][] </list>
          <index> %0 </index>
          <value> %1 </value>
        </element>
        <args> w[0][0] s[0][0] </args>
        <args> w[0][1] s[0][1] </args>
        <args> w[0][2] s[0][2] </args>
        <args> w[0][3] s[0][3] </args>
        <args> w[0][4] s[0][4] </args>
        <args> w[0][5] s[0][5] </args>
        <args> w[0][6] s[0][6] </args>
      </group>
      <group>
        <element>
          <list> sd[1][] </list>
          <index> %0 </index>
          <value> %1 </value>
        </element>
        <args> w[1][0] s[1][0] </args>
        <args> w[1][1] s[1][1] </args>
        <args> w[1][2] s[1][2] </args>
        <args> w[1][3] s[1][3] </args>
        <args> w[1][4] s[1][4] </args>
        <args> w[1][5] s[1][5] </args>
        <args> w[1][6] s[1][6] </args>
      </group>
      <group>
        <element>
          <list> sd[2][] </list>
          <index> %0 </index>
          <value> %1 </value>
        </element>
        <args> w[2][0] s[2][0] </args>
        <args> w[2][1] s[2][1] </args>
        <args> w[2][2] s[2][2] </args>
        <args> w[2][3] s[2][3] </args>
        <args> w[2][4] s[2][4] </args>
        <args> w[2][5] s[2][5] </args>
        <args> w[2][6] s[2][6] </args>
      </group>
      <group>
        <element>
          <list> sd[3][] </list>
          <index> %0 </index>
          <value> %1 </value>
        </element>
        <args> w[3][0] s[3][0] </args>
        <args> w[3][1] s[3][1] </args>
        <args> w[3][2] s[3][2] </args>
        <args> w[3][3] s[3][3] </args>
        <args> w[3][4] s[3][4] </args>
        <args> w[3][5] s[3][5] </args>
        <args> w[3][6] s[3][6] </args>
      </group>
      <group>
        <element>
          <list> sd[4][] </list>
          <index> %0 </index>
          <value> %1 </value>
        </element>
        <args> w[4][0] s[4][0] </args>
        <args> w[4][1] s[4][1] </args>
        <args> w[4][2] s[4][2] </args>
        <args> w[4][3] s[4][3] </args>
        <args> w[4][4] s[4][4] </args>
        <args> w[4][5] s[4][5] </args>
        <args> w[4][6] s[4][6] </args>
      </group>
      <group>
        <element>
          <list> sd[5][] </list>
          <index> %0 </index>
          <value> %1 </value>
        </element>
        <args> w[5][0] s[5][0] </args>
        <args> w[5][1] s[5][1] </args>
        <args> w[5][2] s[5][2] </args>
        <args> w[5][3] s[5][3] </args>
        <args> w[5][4] s[5][4] </args>
        <args> w[5][5] s[5][5] </args>
        <args> w[5][6] s[5][6] </args>
      </group>
      <group>
        <element>
          <list> sd[6][] </list>
          <index> %0 </index>
          <value> %1 </value>
        </element>
        <args> w[6][0] s[6][0] </args>
        <args> w[6][1] s[6][1] </args>
        <args> w[6][2] s[6][2] </args>
        <args> w[6][3] s[6][3] </args>
        <args> w[6][4] s[6][4] </args>
        <args> w[6][5] s[6][5] </args>
        <args> w[6][6] s[6][6] </args>
      </group>
    </block>
    <block>
      <noOverlap>
        <origins> sd[][0] </origins>
        <lengths> 76 84 71 46 40 46 19 </lengths>
      </noOverlap>
      <noOverlap>
        <origins> sd[][1] </origins>
        <lengths> 95 50 97 62 94 45 25 </lengths>
      </noOverlap>
      <noOverlap>
        <origins> sd[][2] </origins>
        <lengths> 93 80 17 72 79 47 69 </lengths>
      </noOverlap>
      <noOverlap>
        <origins> sd[][3] </origins>
        <lengths> 29 68 86 22 80 26 49 </lengths>
      </noOverlap>
      <noOverlap>
        <origins> sd[][4] </origins>
        <lengths> 82 44 50 94 15 44 83 </lengths>
      </noOverlap>
      <noOverlap>
        <origins> sd[][5] </origins>
        <lengths> 78 52 58 98 27 69 53 </lengths>
      </noOverlap>
      <noOverlap>
        <origins> sd[][6] </origins>
        <lengths> 5 62 67 57 87 74 92 </lengths>
      </noOverlap>
    </block>
    <group class="redundantConstraints">
      <intension> ge(%0,%1) </intension>
      <args> e[0] 458 </args>
      <args> e[1] 440 </args>
      <args> e[2] 446 </args>
      <args> e[3] 451 </args>
      <args> e[4] 422 </args>
      <args> e[5] 351 </args>
      <args> e[6] 390 </args>
    </group>
  </constraints>
  <objectives>
    <minimize type="maximum"> e[] </minimize>
  </objectives>
</instance>
